100
128
1
8
59
15
7
48
54
18
26
4
33
17
51
50
59
41
15
51
6
55
60
48
32
33
23
21
54
24
9
42
19
15
55
18
22
30
54
25
15
1
56
52
10
52
40
46
12
49
13
53
16
43
23
13
16
33
32
42
5
1
11
62
2
38
12
15
14
34
20
23
38
24
22
22
18
20
15
53
4
2
1
15
31
29
29
40
37
31
32
25
26
39
32
39
30
2
1
62
2
27